p cnf 0 0
c K couleurs
16 17 18 19 20 21 22 23 24 25 26 27 28 29 30 31 0
1 0
c 1 color par vertex et au plus 1
16 0
17 0
18 0
19 0
20 0
21 0
22 0
23 0
24 0
25 0
26 0
27 0
28 0
29 0
30 0
31 0
c gc coresp to G
c X
c x suite
c proper colo
-16 -17 0
-17 -18 0
-18 -19 0
-19 -20 0
-20 -21 0
-21 -22 0
-22 -23 0
-23 -24 0
-24 -25 0
-25 -26 0
-26 -27 0
-27 -28 0
-28 -29 0
-29 -30 0
-30 -31 0
